% Logging successfully configured
%%%mzn-stat: initTime=0.004296086
%%%mzn-stat: objective=699
%%%mzn-stat: nodes=180
%%%mzn-stat: restarts=0
%%%mzn-stat: peakDepth=180
%%%mzn-stat: solveTime=0.00074698
%%%mzn-stat: variables=370
%%%mzn-stat: propagators=254
%%%mzn-stat: failures=0
%%%mzn-stat: propagations=850
%%%mzn-stat: nogoods=0
%%%mzn-stat: numAtomicConstraintsPropagated=0
%%%mzn-stat: allDifferentNumber1PropagationsTotal=33
%%%mzn-stat: allDifferentNumber1PropagationsThatFoundConflict=0
%%%mzn-stat: allDifferentNumber1PropagationsThatPruned=16
%%%mzn-stat: allDifferentNumber1TotalValuesPruned=79
%%%mzn-stat: allDifferentNumber1TotalHallSetSizeConflict=0
%%%mzn-stat: allDifferentNumber1NumberOfConflicts=0
%%%mzn-stat: allDifferentNumber1MaxHallSetSizeConflict=0
%%%mzn-stat: allDifferentNumber1TotalPruningHallSetSize=100
%%%mzn-stat: allDifferentNumber1NumberOfPruningExplanations=79
%%%mzn-stat: allDifferentNumber1MaxPruningHallSetSize=7
%%%mzn-stat: allDifferentNumber1TotalFixedEdgesAtConflict=0
%%%mzn-stat: allDifferentNumber1TotalVarsInvolvedInPruning=74
%%%mzn-stat: allDifferentNumber1MaxValuesPrunedFromSingleVar=3
%%%mzn-stat: allDifferentNumber1TotalSccSizeAtPruning=43
%%%mzn-stat: allDifferentNumber1NumberOfSccPruningCalls=16
%%%mzn-stat: circuitNumber2PropagationsThatFoundConflict=0
%%%mzn-stat: circuitNumber2TotalFixedEdgesAtConflict=0
%%%mzn-stat: circuitNumber2NumberOfConflicts=0
%%%mzn-stat: circuitNumber2PropagationsThatPruned=0
%%%mzn-stat: circuitNumber2PropagationsTotal=17
%%%mzn-stat: AverageConflictSize=0
%%%mzn-stat: NumUnitNogoodsLearned=0
%%%mzn-stat: AverageLearnedNogoodLength=0
%%%mzn-stat: AverageBacktrackAmount=0
%%%mzn-stat: AverageLbd=0
%%%mzn-stat: 2AutonomousSearchNumBackupCalled=166
%%%mzn-stat: 2AutonomousSearchNumPredicatesRemoved=0
%%%mzn-stat: 2AutonomousSearchNumCalls=167
%%%mzn-stat: 2AutonomousSearchNumPredicatesAdded=0
%%%mzn-stat: 2AutonomousSearchAverageSizeOfHeap=0
%%%mzn-stat: 2AutonomousSearchNumAssignedPredicatesEncountered=0
%%%mzn-stat-end
maxleg = 699;
succ = array1d(1..20,[7, 3, 6, 2, 4, 9, 8, 11, 13, 5, 16, 15, 18, 10, 1, 19, 12, 20, 14, 17]);
% time elapsed: 5.61 s
----------
%%%mzn-stat: initTime=0.004296086
%%%mzn-stat: objective=605
%%%mzn-stat: nodes=348
%%%mzn-stat: restarts=0
%%%mzn-stat: peakDepth=180
%%%mzn-stat: solveTime=0.001735912
%%%mzn-stat: variables=370
%%%mzn-stat: propagators=254
%%%mzn-stat: failures=0
%%%mzn-stat: propagations=1291
%%%mzn-stat: nogoods=0
%%%mzn-stat: numAtomicConstraintsPropagated=0
%%%mzn-stat: allDifferentNumber1PropagationsTotal=65
%%%mzn-stat: allDifferentNumber1PropagationsThatFoundConflict=0
%%%mzn-stat: allDifferentNumber1PropagationsThatPruned=32
%%%mzn-stat: allDifferentNumber1TotalValuesPruned=160
%%%mzn-stat: allDifferentNumber1TotalHallSetSizeConflict=0
%%%mzn-stat: allDifferentNumber1NumberOfConflicts=0
%%%mzn-stat: allDifferentNumber1MaxHallSetSizeConflict=0
%%%mzn-stat: allDifferentNumber1TotalPruningHallSetSize=238
%%%mzn-stat: allDifferentNumber1NumberOfPruningExplanations=160
%%%mzn-stat: allDifferentNumber1MaxPruningHallSetSize=8
%%%mzn-stat: allDifferentNumber1TotalFixedEdgesAtConflict=0
%%%mzn-stat: allDifferentNumber1TotalVarsInvolvedInPruning=148
%%%mzn-stat: allDifferentNumber1MaxValuesPrunedFromSingleVar=5
%%%mzn-stat: allDifferentNumber1TotalSccSizeAtPruning=73
%%%mzn-stat: allDifferentNumber1NumberOfSccPruningCalls=32
%%%mzn-stat: circuitNumber2PropagationsThatFoundConflict=0
%%%mzn-stat: circuitNumber2TotalFixedEdgesAtConflict=0
%%%mzn-stat: circuitNumber2NumberOfConflicts=0
%%%mzn-stat: circuitNumber2PropagationsThatPruned=1
%%%mzn-stat: circuitNumber2PropagationsTotal=33
%%%mzn-stat: AverageConflictSize=0
%%%mzn-stat: NumUnitNogoodsLearned=0
%%%mzn-stat: AverageLearnedNogoodLength=0
%%%mzn-stat: AverageBacktrackAmount=0
%%%mzn-stat: AverageLbd=0
%%%mzn-stat: 2AutonomousSearchNumBackupCalled=318
%%%mzn-stat: 2AutonomousSearchNumPredicatesRemoved=0
%%%mzn-stat: 2AutonomousSearchNumCalls=320
%%%mzn-stat: 2AutonomousSearchNumPredicatesAdded=0
%%%mzn-stat: 2AutonomousSearchAverageSizeOfHeap=0
%%%mzn-stat: 2AutonomousSearchNumAssignedPredicatesEncountered=0
%%%mzn-stat-end
maxleg = 605;
succ = array1d(1..20,[7, 4, 6, 5, 10, 2, 3, 1, 11, 12, 8, 15, 14, 19, 17, 9, 18, 20, 16, 13]);
% time elapsed: 5.61 s
----------
%%%mzn-stat: initTime=0.004296086
%%%mzn-stat: objective=576
%%%mzn-stat: nodes=534
%%%mzn-stat: restarts=0
%%%mzn-stat: peakDepth=180
%%%mzn-stat: solveTime=0.004583956
%%%mzn-stat: variables=370
%%%mzn-stat: propagators=254
%%%mzn-stat: failures=16
%%%mzn-stat: propagations=2153
%%%mzn-stat: nogoods=16
%%%mzn-stat: numAtomicConstraintsPropagated=0
%%%mzn-stat: allDifferentNumber1PropagationsTotal=157
%%%mzn-stat: allDifferentNumber1PropagationsThatFoundConflict=0
%%%mzn-stat: allDifferentNumber1PropagationsThatPruned=85
%%%mzn-stat: allDifferentNumber1TotalValuesPruned=361
%%%mzn-stat: allDifferentNumber1TotalHallSetSizeConflict=0
%%%mzn-stat: allDifferentNumber1NumberOfConflicts=0
%%%mzn-stat: allDifferentNumber1MaxHallSetSizeConflict=0
%%%mzn-stat: allDifferentNumber1TotalPruningHallSetSize=651
%%%mzn-stat: allDifferentNumber1NumberOfPruningExplanations=361
%%%mzn-stat: allDifferentNumber1MaxPruningHallSetSize=8
%%%mzn-stat: allDifferentNumber1TotalFixedEdgesAtConflict=0
%%%mzn-stat: allDifferentNumber1TotalVarsInvolvedInPruning=311
%%%mzn-stat: allDifferentNumber1MaxValuesPrunedFromSingleVar=5
%%%mzn-stat: allDifferentNumber1TotalSccSizeAtPruning=291
%%%mzn-stat: allDifferentNumber1NumberOfSccPruningCalls=85
%%%mzn-stat: circuitNumber2PropagationsThatFoundConflict=16
%%%mzn-stat: circuitNumber2TotalFixedEdgesAtConflict=262
%%%mzn-stat: circuitNumber2NumberOfConflicts=16
%%%mzn-stat: circuitNumber2PropagationsThatPruned=18
%%%mzn-stat: circuitNumber2PropagationsTotal=90
%%%mzn-stat: AverageConflictSize=15.375
%%%mzn-stat: NumUnitNogoodsLearned=0
%%%mzn-stat: AverageLearnedNogoodLength=16.9375
%%%mzn-stat: AverageBacktrackAmount=0
%%%mzn-stat: AverageLbd=13.25
%%%mzn-stat: 2AutonomousSearchNumBackupCalled=473
%%%mzn-stat: 2AutonomousSearchNumPredicatesRemoved=0
%%%mzn-stat: 2AutonomousSearchNumCalls=476
%%%mzn-stat: 2AutonomousSearchNumPredicatesAdded=175
%%%mzn-stat: 2AutonomousSearchAverageSizeOfHeap=0.36764705882352944
%%%mzn-stat: 2AutonomousSearchNumAssignedPredicatesEncountered=175
%%%mzn-stat-end
maxleg = 576;
succ = array1d(1..20,[7, 4, 6, 5, 10, 2, 3, 1, 11, 14, 13, 15, 20, 19, 8, 9, 12, 17, 16, 18]);
% time elapsed: 5.61 s
----------
%%%mzn-stat: initTime=0.004296086
%%%mzn-stat: objective=575
%%%mzn-stat: nodes=692
%%%mzn-stat: restarts=0
%%%mzn-stat: peakDepth=180
%%%mzn-stat: solveTime=0.005140233
%%%mzn-stat: variables=370
%%%mzn-stat: propagators=254
%%%mzn-stat: failures=16
%%%mzn-stat: propagations=2597
%%%mzn-stat: nogoods=16
%%%mzn-stat: numAtomicConstraintsPropagated=0
%%%mzn-stat: allDifferentNumber1PropagationsTotal=189
%%%mzn-stat: allDifferentNumber1PropagationsThatFoundConflict=0
%%%mzn-stat: allDifferentNumber1PropagationsThatPruned=101
%%%mzn-stat: allDifferentNumber1TotalValuesPruned=433
%%%mzn-stat: allDifferentNumber1TotalHallSetSizeConflict=0
%%%mzn-stat: allDifferentNumber1NumberOfConflicts=0
%%%mzn-stat: allDifferentNumber1MaxHallSetSizeConflict=0
%%%mzn-stat: allDifferentNumber1TotalPruningHallSetSize=736
%%%mzn-stat: allDifferentNumber1NumberOfPruningExplanations=433
%%%mzn-stat: allDifferentNumber1MaxPruningHallSetSize=8
%%%mzn-stat: allDifferentNumber1TotalFixedEdgesAtConflict=0
%%%mzn-stat: allDifferentNumber1TotalVarsInvolvedInPruning=379
%%%mzn-stat: allDifferentNumber1MaxValuesPrunedFromSingleVar=5
%%%mzn-stat: allDifferentNumber1TotalSccSizeAtPruning=321
%%%mzn-stat: allDifferentNumber1NumberOfSccPruningCalls=101
%%%mzn-stat: circuitNumber2PropagationsThatFoundConflict=16
%%%mzn-stat: circuitNumber2TotalFixedEdgesAtConflict=262
%%%mzn-stat: circuitNumber2NumberOfConflicts=16
%%%mzn-stat: circuitNumber2PropagationsThatPruned=19
%%%mzn-stat: circuitNumber2PropagationsTotal=106
%%%mzn-stat: AverageConflictSize=15.375
%%%mzn-stat: NumUnitNogoodsLearned=0
%%%mzn-stat: AverageLearnedNogoodLength=16.9375
%%%mzn-stat: AverageBacktrackAmount=0
%%%mzn-stat: AverageLbd=13.25
%%%mzn-stat: 2AutonomousSearchNumBackupCalled=617
%%%mzn-stat: 2AutonomousSearchNumPredicatesRemoved=0
%%%mzn-stat: 2AutonomousSearchNumCalls=621
%%%mzn-stat: 2AutonomousSearchNumPredicatesAdded=175
%%%mzn-stat: 2AutonomousSearchAverageSizeOfHeap=0.5636070853462157
%%%mzn-stat: 2AutonomousSearchNumAssignedPredicatesEncountered=350
%%%mzn-stat-end
maxleg = 575;
succ = array1d(1..20,[7, 4, 6, 5, 10, 2, 3, 1, 11, 14, 13, 17, 20, 19, 8, 9, 15, 12, 16, 18]);
% time elapsed: 5.61 s
----------
%%%mzn-stat: initTime=0.004296086
%%%mzn-stat: objective=532
%%%mzn-stat: nodes=861
%%%mzn-stat: restarts=0
%%%mzn-stat: peakDepth=180
%%%mzn-stat: solveTime=0.007173034
%%%mzn-stat: variables=370
%%%mzn-stat: propagators=254
%%%mzn-stat: failures=28
%%%mzn-stat: propagations=3428
%%%mzn-stat: nogoods=28
%%%mzn-stat: numAtomicConstraintsPropagated=0
%%%mzn-stat: allDifferentNumber1PropagationsTotal=264
%%%mzn-stat: allDifferentNumber1PropagationsThatFoundConflict=0
%%%mzn-stat: allDifferentNumber1PropagationsThatPruned=144
%%%mzn-stat: allDifferentNumber1TotalValuesPruned=605
%%%mzn-stat: allDifferentNumber1TotalHallSetSizeConflict=0
%%%mzn-stat: allDifferentNumber1NumberOfConflicts=0
%%%mzn-stat: allDifferentNumber1MaxHallSetSizeConflict=0
%%%mzn-stat: allDifferentNumber1TotalPruningHallSetSize=1077
%%%mzn-stat: allDifferentNumber1NumberOfPruningExplanations=605
%%%mzn-stat: allDifferentNumber1MaxPruningHallSetSize=8
%%%mzn-stat: allDifferentNumber1TotalFixedEdgesAtConflict=0
%%%mzn-stat: allDifferentNumber1TotalVarsInvolvedInPruning=515
%%%mzn-stat: allDifferentNumber1MaxValuesPrunedFromSingleVar=5
%%%mzn-stat: allDifferentNumber1TotalSccSizeAtPruning=470
%%%mzn-stat: allDifferentNumber1NumberOfSccPruningCalls=144
%%%mzn-stat: circuitNumber2PropagationsThatFoundConflict=28
%%%mzn-stat: circuitNumber2TotalFixedEdgesAtConflict=470
%%%mzn-stat: circuitNumber2NumberOfConflicts=28
%%%mzn-stat: circuitNumber2PropagationsThatPruned=31
%%%mzn-stat: circuitNumber2PropagationsTotal=151
%%%mzn-stat: AverageConflictSize=15.357142857142858
%%%mzn-stat: NumUnitNogoodsLearned=0
%%%mzn-stat: AverageLearnedNogoodLength=16.75
%%%mzn-stat: AverageBacktrackAmount=0
%%%mzn-stat: AverageLbd=13.178571428571429
%%%mzn-stat: 2AutonomousSearchNumBackupCalled=759
%%%mzn-stat: 2AutonomousSearchNumPredicatesRemoved=0
%%%mzn-stat: 2AutonomousSearchNumCalls=764
%%%mzn-stat: 2AutonomousSearchNumPredicatesAdded=345
%%%mzn-stat: 2AutonomousSearchAverageSizeOfHeap=0.7054973821989529
%%%mzn-stat: 2AutonomousSearchNumAssignedPredicatesEncountered=539
%%%mzn-stat-end
maxleg = 532;
succ = array1d(1..20,[8, 4, 6, 5, 10, 2, 3, 7, 11, 14, 13, 17, 20, 19, 1, 9, 15, 12, 16, 18]);
% time elapsed: 5.61 s
----------
%%%mzn-stat: initTime=0.004296086
%%%mzn-stat: objective=510
%%%mzn-stat: nodes=1005
%%%mzn-stat: restarts=0
%%%mzn-stat: peakDepth=180
%%%mzn-stat: solveTime=0.008368755
%%%mzn-stat: variables=370
%%%mzn-stat: propagators=254
%%%mzn-stat: failures=28
%%%mzn-stat: propagations=3890
%%%mzn-stat: nogoods=28
%%%mzn-stat: numAtomicConstraintsPropagated=0
%%%mzn-stat: allDifferentNumber1PropagationsTotal=293
%%%mzn-stat: allDifferentNumber1PropagationsThatFoundConflict=0
%%%mzn-stat: allDifferentNumber1PropagationsThatPruned=159
%%%mzn-stat: allDifferentNumber1TotalValuesPruned=676
%%%mzn-stat: allDifferentNumber1TotalHallSetSizeConflict=0
%%%mzn-stat: allDifferentNumber1NumberOfConflicts=0
%%%mzn-stat: allDifferentNumber1MaxHallSetSizeConflict=0
%%%mzn-stat: allDifferentNumber1TotalPruningHallSetSize=1207
%%%mzn-stat: allDifferentNumber1NumberOfPruningExplanations=676
%%%mzn-stat: allDifferentNumber1MaxPruningHallSetSize=10
%%%mzn-stat: allDifferentNumber1TotalFixedEdgesAtConflict=0
%%%mzn-stat: allDifferentNumber1TotalVarsInvolvedInPruning=580
%%%mzn-stat: allDifferentNumber1MaxValuesPrunedFromSingleVar=5
%%%mzn-stat: allDifferentNumber1TotalSccSizeAtPruning=510
%%%mzn-stat: allDifferentNumber1NumberOfSccPruningCalls=159
%%%mzn-stat: circuitNumber2PropagationsThatFoundConflict=28
%%%mzn-stat: circuitNumber2TotalFixedEdgesAtConflict=470
%%%mzn-stat: circuitNumber2NumberOfConflicts=28
%%%mzn-stat: circuitNumber2PropagationsThatPruned=32
%%%mzn-stat: circuitNumber2PropagationsTotal=166
%%%mzn-stat: AverageConflictSize=15.357142857142858
%%%mzn-stat: NumUnitNogoodsLearned=0
%%%mzn-stat: AverageLearnedNogoodLength=16.75
%%%mzn-stat: AverageBacktrackAmount=0
%%%mzn-stat: AverageLbd=13.178571428571429
%%%mzn-stat: 2AutonomousSearchNumBackupCalled=890
%%%mzn-stat: 2AutonomousSearchNumPredicatesRemoved=0
%%%mzn-stat: 2AutonomousSearchNumCalls=896
%%%mzn-stat: 2AutonomousSearchNumPredicatesAdded=345
%%%mzn-stat: 2AutonomousSearchAverageSizeOfHeap=0.8125
%%%mzn-stat: 2AutonomousSearchNumAssignedPredicatesEncountered=728
%%%mzn-stat-end
maxleg = 510;
succ = array1d(1..20,[8, 4, 6, 5, 10, 7, 9, 3, 11, 14, 16, 17, 20, 13, 1, 19, 15, 12, 2, 18]);
% time elapsed: 5.62 s
----------
%%%mzn-stat: initTime=0.004296086
%%%mzn-stat: objective=446
%%%mzn-stat: nodes=1147
%%%mzn-stat: restarts=0
%%%mzn-stat: peakDepth=180
%%%mzn-stat: solveTime=0.009090855
%%%mzn-stat: variables=370
%%%mzn-stat: propagators=254
%%%mzn-stat: failures=29
%%%mzn-stat: propagations=4377
%%%mzn-stat: nogoods=29
%%%mzn-stat: numAtomicConstraintsPropagated=0
%%%mzn-stat: allDifferentNumber1PropagationsTotal=323
%%%mzn-stat: allDifferentNumber1PropagationsThatFoundConflict=0
%%%mzn-stat: allDifferentNumber1PropagationsThatPruned=175
%%%mzn-stat: allDifferentNumber1TotalValuesPruned=756
%%%mzn-stat: allDifferentNumber1TotalHallSetSizeConflict=0
%%%mzn-stat: allDifferentNumber1NumberOfConflicts=0
%%%mzn-stat: allDifferentNumber1MaxHallSetSizeConflict=0
%%%mzn-stat: allDifferentNumber1TotalPruningHallSetSize=1360
%%%mzn-stat: allDifferentNumber1NumberOfPruningExplanations=756
%%%mzn-stat: allDifferentNumber1MaxPruningHallSetSize=11
%%%mzn-stat: allDifferentNumber1TotalFixedEdgesAtConflict=0
%%%mzn-stat: allDifferentNumber1TotalVarsInvolvedInPruning=651
%%%mzn-stat: allDifferentNumber1MaxValuesPrunedFromSingleVar=5
%%%mzn-stat: allDifferentNumber1TotalSccSizeAtPruning=554
%%%mzn-stat: allDifferentNumber1NumberOfSccPruningCalls=175
%%%mzn-stat: circuitNumber2PropagationsThatFoundConflict=29
%%%mzn-stat: circuitNumber2TotalFixedEdgesAtConflict=486
%%%mzn-stat: circuitNumber2NumberOfConflicts=29
%%%mzn-stat: circuitNumber2PropagationsThatPruned=34
%%%mzn-stat: circuitNumber2PropagationsTotal=182
%%%mzn-stat: AverageConflictSize=15.03448275862069
%%%mzn-stat: NumUnitNogoodsLearned=0
%%%mzn-stat: AverageLearnedNogoodLength=17
%%%mzn-stat: AverageBacktrackAmount=0
%%%mzn-stat: AverageLbd=13.10344827586207
%%%mzn-stat: 2AutonomousSearchNumBackupCalled=1018
%%%mzn-stat: 2AutonomousSearchNumPredicatesRemoved=0
%%%mzn-stat: 2AutonomousSearchNumCalls=1025
%%%mzn-stat: 2AutonomousSearchNumPredicatesAdded=414
%%%mzn-stat: 2AutonomousSearchAverageSizeOfHeap=0.9307317073170732
%%%mzn-stat: 2AutonomousSearchNumAssignedPredicatesEncountered=954
%%%mzn-stat-end
maxleg = 446;
succ = array1d(1..20,[8, 4, 6, 5, 10, 7, 9, 11, 13, 19, 16, 17, 14, 2, 1, 3, 15, 12, 20, 18]);
% time elapsed: 5.62 s
----------
%%%mzn-stat: initTime=0.004296086
%%%mzn-stat: objective=397
%%%mzn-stat: nodes=1261
%%%mzn-stat: restarts=0
%%%mzn-stat: peakDepth=180
%%%mzn-stat: solveTime=0.009630906
%%%mzn-stat: variables=370
%%%mzn-stat: propagators=254
%%%mzn-stat: failures=29
%%%mzn-stat: propagations=4840
%%%mzn-stat: nogoods=29
%%%mzn-stat: numAtomicConstraintsPropagated=0
%%%mzn-stat: allDifferentNumber1PropagationsTotal=350
%%%mzn-stat: allDifferentNumber1PropagationsThatFoundConflict=0
%%%mzn-stat: allDifferentNumber1PropagationsThatPruned=189
%%%mzn-stat: allDifferentNumber1TotalValuesPruned=821
%%%mzn-stat: allDifferentNumber1TotalHallSetSizeConflict=0
%%%mzn-stat: allDifferentNumber1NumberOfConflicts=0
%%%mzn-stat: allDifferentNumber1MaxHallSetSizeConflict=0
%%%mzn-stat: allDifferentNumber1TotalPruningHallSetSize=1499
%%%mzn-stat: allDifferentNumber1NumberOfPruningExplanations=821
%%%mzn-stat: allDifferentNumber1MaxPruningHallSetSize=14
%%%mzn-stat: allDifferentNumber1TotalFixedEdgesAtConflict=0
%%%mzn-stat: allDifferentNumber1TotalVarsInvolvedInPruning=709
%%%mzn-stat: allDifferentNumber1MaxValuesPrunedFromSingleVar=5
%%%mzn-stat: allDifferentNumber1TotalSccSizeAtPruning=618
%%%mzn-stat: allDifferentNumber1NumberOfSccPruningCalls=189
%%%mzn-stat: circuitNumber2PropagationsThatFoundConflict=29
%%%mzn-stat: circuitNumber2TotalFixedEdgesAtConflict=486
%%%mzn-stat: circuitNumber2NumberOfConflicts=29
%%%mzn-stat: circuitNumber2PropagationsThatPruned=35
%%%mzn-stat: circuitNumber2PropagationsTotal=196
%%%mzn-stat: AverageConflictSize=15.03448275862069
%%%mzn-stat: NumUnitNogoodsLearned=0
%%%mzn-stat: AverageLearnedNogoodLength=17
%%%mzn-stat: AverageBacktrackAmount=0
%%%mzn-stat: AverageLbd=13.10344827586207
%%%mzn-stat: 2AutonomousSearchNumBackupCalled=1120
%%%mzn-stat: 2AutonomousSearchNumPredicatesRemoved=0
%%%mzn-stat: 2AutonomousSearchNumCalls=1128
%%%mzn-stat: 2AutonomousSearchNumPredicatesAdded=414
%%%mzn-stat: 2AutonomousSearchAverageSizeOfHeap=1.0460992907801419
%%%mzn-stat: 2AutonomousSearchNumAssignedPredicatesEncountered=1180
%%%mzn-stat-end
maxleg = 397;
succ = array1d(1..20,[8, 4, 6, 5, 10, 7, 9, 11, 13, 19, 16, 17, 14, 2, 1, 3, 18, 15, 20, 12]);
% time elapsed: 5.62 s
----------
%%%mzn-stat: initTime=0.004296086
%%%mzn-stat: objective=379
%%%mzn-stat: nodes=1364
%%%mzn-stat: restarts=0
%%%mzn-stat: peakDepth=180
%%%mzn-stat: solveTime=0.01021644
%%%mzn-stat: variables=370
%%%mzn-stat: propagators=254
%%%mzn-stat: failures=29
%%%mzn-stat: propagations=5323
%%%mzn-stat: nogoods=29
%%%mzn-stat: numAtomicConstraintsPropagated=0
%%%mzn-stat: allDifferentNumber1PropagationsTotal=375
%%%mzn-stat: allDifferentNumber1PropagationsThatFoundConflict=0
%%%mzn-stat: allDifferentNumber1PropagationsThatPruned=201
%%%mzn-stat: allDifferentNumber1TotalValuesPruned=872
%%%mzn-stat: allDifferentNumber1TotalHallSetSizeConflict=0
%%%mzn-stat: allDifferentNumber1NumberOfConflicts=0
%%%mzn-stat: allDifferentNumber1MaxHallSetSizeConflict=0
%%%mzn-stat: allDifferentNumber1TotalPruningHallSetSize=1633
%%%mzn-stat: allDifferentNumber1NumberOfPruningExplanations=872
%%%mzn-stat: allDifferentNumber1MaxPruningHallSetSize=18
%%%mzn-stat: allDifferentNumber1TotalFixedEdgesAtConflict=0
%%%mzn-stat: allDifferentNumber1TotalVarsInvolvedInPruning=755
%%%mzn-stat: allDifferentNumber1MaxValuesPrunedFromSingleVar=5
%%%mzn-stat: allDifferentNumber1TotalSccSizeAtPruning=694
%%%mzn-stat: allDifferentNumber1NumberOfSccPruningCalls=201
%%%mzn-stat: circuitNumber2PropagationsThatFoundConflict=29
%%%mzn-stat: circuitNumber2TotalFixedEdgesAtConflict=486
%%%mzn-stat: circuitNumber2NumberOfConflicts=29
%%%mzn-stat: circuitNumber2PropagationsThatPruned=36
%%%mzn-stat: circuitNumber2PropagationsTotal=209
%%%mzn-stat: AverageConflictSize=15.03448275862069
%%%mzn-stat: NumUnitNogoodsLearned=0
%%%mzn-stat: AverageLearnedNogoodLength=17
%%%mzn-stat: AverageBacktrackAmount=0
%%%mzn-stat: AverageLbd=13.10344827586207
%%%mzn-stat: 2AutonomousSearchNumBackupCalled=1211
%%%mzn-stat: 2AutonomousSearchNumPredicatesRemoved=0
%%%mzn-stat: 2AutonomousSearchNumCalls=1220
%%%mzn-stat: 2AutonomousSearchNumPredicatesAdded=414
%%%mzn-stat: 2AutonomousSearchAverageSizeOfHeap=1.1524590163934427
%%%mzn-stat: 2AutonomousSearchNumAssignedPredicatesEncountered=1406
%%%mzn-stat-end
maxleg = 379;
succ = array1d(1..20,[8, 4, 6, 10, 2, 5, 3, 11, 7, 14, 9, 17, 16, 13, 1, 19, 18, 15, 20, 12]);
% time elapsed: 5.62 s
----------
==========
% time elapsed: 5.62 s
%%%mzn-stat: initTime=0.004296086
%%%mzn-stat: objective=379
%%%mzn-stat: nodes=1364
%%%mzn-stat: restarts=0
%%%mzn-stat: peakDepth=180
%%%mzn-stat: solveTime=0.010412014
%%%mzn-stat: variables=370
%%%mzn-stat: propagators=254
%%%mzn-stat: failures=30
%%%mzn-stat: propagations=5469
%%%mzn-stat: nogoods=30
%%%mzn-stat: numAtomicConstraintsPropagated=0
%%%mzn-stat: allDifferentNumber1PropagationsTotal=376
%%%mzn-stat: allDifferentNumber1PropagationsThatFoundConflict=0
%%%mzn-stat: allDifferentNumber1PropagationsThatPruned=202
%%%mzn-stat: allDifferentNumber1TotalValuesPruned=878
%%%mzn-stat: allDifferentNumber1TotalHallSetSizeConflict=0
%%%mzn-stat: allDifferentNumber1NumberOfConflicts=0
%%%mzn-stat: allDifferentNumber1MaxHallSetSizeConflict=0
%%%mzn-stat: allDifferentNumber1TotalPruningHallSetSize=1693
%%%mzn-stat: allDifferentNumber1NumberOfPruningExplanations=878
%%%mzn-stat: allDifferentNumber1MaxPruningHallSetSize=19
%%%mzn-stat: allDifferentNumber1TotalFixedEdgesAtConflict=0
%%%mzn-stat: allDifferentNumber1TotalVarsInvolvedInPruning=759
%%%mzn-stat: allDifferentNumber1MaxValuesPrunedFromSingleVar=5
%%%mzn-stat: allDifferentNumber1TotalSccSizeAtPruning=731
%%%mzn-stat: allDifferentNumber1NumberOfSccPruningCalls=202
%%%mzn-stat: circuitNumber2PropagationsThatFoundConflict=30
%%%mzn-stat: circuitNumber2TotalFixedEdgesAtConflict=488
%%%mzn-stat: circuitNumber2NumberOfConflicts=30
%%%mzn-stat: circuitNumber2PropagationsThatPruned=36
%%%mzn-stat: circuitNumber2PropagationsTotal=210
%%%mzn-stat: AverageConflictSize=14.6
%%%mzn-stat: NumUnitNogoodsLearned=1
%%%mzn-stat: AverageLearnedNogoodLength=16.466666666666665
%%%mzn-stat: AverageBacktrackAmount=0
%%%mzn-stat: AverageLbd=12.7
%%%mzn-stat: 2AutonomousSearchNumBackupCalled=1211
%%%mzn-stat: 2AutonomousSearchNumPredicatesRemoved=0
%%%mzn-stat: 2AutonomousSearchNumCalls=1220
%%%mzn-stat: 2AutonomousSearchNumPredicatesAdded=593
%%%mzn-stat: 2AutonomousSearchAverageSizeOfHeap=1.1524590163934427
%%%mzn-stat: 2AutonomousSearchNumAssignedPredicatesEncountered=1406
%%%mzn-stat-end
